unsat
( c0
  c1
  c1163
  c1258
  c1259
  c1276
  c1279
  c1280
  c13
  c1378
  c1419
  c1428
  c1498
  c15
  c1507
  c1578
  c1579
  c17
  c18
  c19
  c2
  c20
  c243
  c244
  c245
  c246
  c263
  c265
  c270
  c279
  c285
  c294
  c298
  c303
  c31
  c317
  c319
  c324
  c33
  c333
  c339
  c341
  c348
  c35
  c352
  c357
  c752
  c760
  c763
  c769
  c780
  c782
  c785
  c970
  c972
  c977
  c979 )
